DATASET = "thpack5";
INSTANCE = "030";

WIDTH = 233;
HEIGHT = 220;
LENGTH = 587;

NO_OF_SHAPES = 12;
size = [|
  64,53,32 |
  51,42,28 |
  49,32,30 |
  109,68,59 |
  66,43,32 |
  120,71,47 |
  109,57,41 |
  100,70,28 |
  76,70,51 |
  85,40,26 |
  79,71,55 |
  93,73,55 |
|];

verticality = [|
  0,1,1 |
  1,1,1 |
  1,1,1 |
  1,1,1 |
  0,1,1 |
  0,1,1 |
  0,1,1 |
  0,0,1 |
  1,1,1 |
  0,1,1 |
  1,1,1 |
  1,1,1 |
|];

box_count = [
  9,
  15,
  11,
  17,
  9,
  5,
  13,
  14,
  10,
  11,
  8,
  13,
];
